; benchmark generated from python API
(set-info :status unknown)
(declare-fun x_epoch () Int)
(declare-fun x_plus_epoch () Int)
(declare-fun x_plus_month () Int)
(declare-fun x_plus_year () Int)
(declare-fun x_plus_day () Int)
(assert
 (>= x_epoch (- 36584)))
(assert
 (<= x_epoch 36829))
(assert
 (>= x_epoch 8371))
(assert
 (>= x_plus_epoch (- 36584)))
(assert
 (<= x_plus_epoch 36829))
(assert
 (let (($x2487 (= x_plus_month 11)))
 (let (($x204 (= x_plus_month 9)))
 (let (($x780 (= x_plus_month 6)))
 (let (($x2410 (= x_plus_month 4)))
 (let ((?x542 (ite (or $x2410 $x780 $x204 $x2487) 30 31)))
 (let (($x818 (= (mod x_plus_year 400) 0)))
 (let (($x156 (= (mod x_plus_year 4) 0)))
 (let (($x598 (or (and $x156 (and (distinct (mod x_plus_year 100) 0) true)) $x818)))
 (let (($x814 (= x_plus_month 2)))
 (let (($x2453 (>= x_plus_day 1)))
 (let (($x1195 (<= x_plus_month 12)))
 (let (($x153 (>= x_plus_month 1)))
 (let (($x3218 (<= x_plus_year 2100)))
 (let (($x2882 (>= x_plus_year 1900)))
 (and $x2882 $x3218 $x153 $x1195 $x2453 (<= x_plus_day (ite $x814 (ite $x598 29 28) ?x542))))))))))))))))))
(assert
 (let (($x29 (or (and (= (mod 2000 4) 0) (and (distinct (mod 2000 100) 0) true)) (= (mod 2000 400) 0))))
 (let ((?x36 (ite (= 3 2) (ite $x29 31 31) (ite (= 3 1) (ite $x29 0 0) 0))))
 (let ((?x40 (ite $x29 60 59)))
 (let ((?x41 (ite (= 3 3) ?x40 ?x36)))
 (let ((?x46 (ite (= 3 4) (ite $x29 91 90) ?x41)))
 (let ((?x52 (ite (= 3 5) (ite $x29 121 120) ?x46)))
 (let ((?x58 (ite (= 3 6) (ite $x29 152 151) ?x52)))
 (let ((?x64 (ite (= 3 7) (ite $x29 182 181) ?x58)))
 (let ((?x70 (ite (= 3 8) (ite $x29 213 212) ?x64)))
 (let ((?x76 (ite (= 3 9) (ite $x29 244 243) ?x70)))
 (let ((?x82 (ite (= 3 10) (ite $x29 274 273) ?x76)))
 (let ((?x88 (ite (= 3 11) (ite $x29 305 304) ?x82)))
 (let ((?x16 (- (+ (* 365 (- 2000 1)) (div (- 2000 1) 4)) (div (- 2000 1) 100))))
 (let ((?x95 (+ (+ ?x16 (div (- 2000 1) 400)) (ite (= 3 12) (ite $x29 335 334) ?x88))))
 (let ((?x97 (+ ?x95 (- 1 1))))
 (let (($x818 (= (mod x_plus_year 400) 0)))
 (let (($x156 (= (mod x_plus_year 4) 0)))
 (let (($x598 (or (and $x156 (and (distinct (mod x_plus_year 100) 0) true)) $x818)))
 (let (($x3199 (= 2 x_plus_month)))
 (let ((?x628 (ite $x3199 (ite $x598 31 31) (ite (= 1 x_plus_month) (ite $x598 0 0) 0))))
 (let (($x219 (= 3 x_plus_month)))
 (let (($x192 (= 4 x_plus_month)))
 (let ((?x2397 (ite $x192 (ite $x598 91 90) (ite $x219 (ite $x598 60 59) ?x628))))
 (let (($x433 (= 5 x_plus_month)))
 (let (($x3280 (= 6 x_plus_month)))
 (let ((?x804 (ite $x3280 (ite $x598 152 151) (ite $x433 (ite $x598 121 120) ?x2397))))
 (let (($x508 (= 7 x_plus_month)))
 (let (($x813 (= 8 x_plus_month)))
 (let ((?x567 (ite $x813 (ite $x598 213 212) (ite $x508 (ite $x598 182 181) ?x804))))
 (let (($x100 (= 9 x_plus_month)))
 (let (($x776 (= 10 x_plus_month)))
 (let ((?x683 (ite $x776 (ite $x598 274 273) (ite $x100 (ite $x598 244 243) ?x567))))
 (let (($x345 (= 11 x_plus_month)))
 (let (($x376 (= 12 x_plus_month)))
 (let ((?x2280 (ite $x376 (ite $x598 335 334) (ite $x345 (ite $x598 305 304) ?x683))))
 (let ((?x798 (+ (* 365 (- x_plus_year 1)) (div (- x_plus_year 1) 4))))
 (let ((?x2535 (+ (- ?x798 (div (- x_plus_year 1) 100)) (div (- x_plus_year 1) 400))))
 (= x_plus_epoch (- (+ (+ ?x2535 ?x2280) (- x_plus_day 1)) ?x97))))))))))))))))))))))))))))))))))))))))
(assert
 (let (($x29 (or (and (= (mod 2000 4) 0) (and (distinct (mod 2000 100) 0) true)) (= (mod 2000 400) 0))))
 (let ((?x36 (ite (= 3 2) (ite $x29 31 31) (ite (= 3 1) (ite $x29 0 0) 0))))
 (let ((?x40 (ite $x29 60 59)))
 (let ((?x41 (ite (= 3 3) ?x40 ?x36)))
 (let ((?x46 (ite (= 3 4) (ite $x29 91 90) ?x41)))
 (let ((?x52 (ite (= 3 5) (ite $x29 121 120) ?x46)))
 (let ((?x58 (ite (= 3 6) (ite $x29 152 151) ?x52)))
 (let ((?x64 (ite (= 3 7) (ite $x29 182 181) ?x58)))
 (let ((?x70 (ite (= 3 8) (ite $x29 213 212) ?x64)))
 (let ((?x76 (ite (= 3 9) (ite $x29 244 243) ?x70)))
 (let ((?x82 (ite (= 3 10) (ite $x29 274 273) ?x76)))
 (let ((?x88 (ite (= 3 11) (ite $x29 305 304) ?x82)))
 (let ((?x16 (- (+ (* 365 (- 2000 1)) (div (- 2000 1) 4)) (div (- 2000 1) 100))))
 (let ((?x95 (+ (+ ?x16 (div (- 2000 1) 400)) (ite (= 3 12) (ite $x29 335 334) ?x88))))
 (let ((?x97 (+ ?x95 (- 1 1))))
 (let ((?x357 (+ x_epoch ?x97)))
 (let ((?x1747 (mod ?x357 146097)))
 (let ((?x555 (div ?x1747 36524)))
 (let ((?x3001 (ite (<= 4 ?x555) 3 ?x555)))
 (let ((?x2745 (- ?x1747 (* ?x3001 36524))))
 (let ((?x328 (mod ?x2745 1461)))
 (let ((?x606 (div ?x328 365)))
 (let ((?x2600 (ite (<= 4 ?x606) 3 ?x606)))
 (let ((?x616 (+ (+ (* (div ?x357 146097) 400) (* ?x3001 100)) (* (div ?x2745 1461) 4))))
 (let ((?x498 (+ (+ ?x616 ?x2600) 1)))
 (let (($x2468 (or (and (= (mod ?x498 4) 0) (and (distinct (mod ?x498 100) 0) true)) (= (mod ?x498 400) 0))))
 (let ((?x178 (- ?x328 (* ?x2600 365))))
 (let ((?x2937 (ite $x2468 31 31)))
 (let (($x138 (>= ?x178 ?x2937)))
 (let ((?x506 (ite $x138 (+ (- ?x178 ?x2937) 1) (+ (- ?x178 (ite $x2468 0 0)) 1))))
 (let ((?x649 (ite $x2468 60 59)))
 (let (($x2894 (>= ?x178 ?x649)))
 (let ((?x799 (ite $x2468 91 90)))
 (let (($x488 (>= ?x178 ?x799)))
 (let ((?x466 (ite $x488 (+ (- ?x178 ?x799) 1) (ite $x2894 (+ (- ?x178 ?x649) 1) ?x506))))
 (let ((?x563 (ite $x2468 121 120)))
 (let (($x143 (>= ?x178 ?x563)))
 (let ((?x2146 (ite $x2468 152 151)))
 (let (($x363 (>= ?x178 ?x2146)))
 (let ((?x292 (ite $x363 (+ (- ?x178 ?x2146) 1) (ite $x143 (+ (- ?x178 ?x563) 1) ?x466))))
 (let ((?x360 (ite $x2468 182 181)))
 (let (($x351 (>= ?x178 ?x360)))
 (let ((?x240 (ite $x2468 213 212)))
 (let (($x439 (>= ?x178 ?x240)))
 (let ((?x538 (ite $x439 (+ (- ?x178 ?x240) 1) (ite $x351 (+ (- ?x178 ?x360) 1) ?x292))))
 (let ((?x3103 (ite $x2468 244 243)))
 (let (($x485 (>= ?x178 ?x3103)))
 (let ((?x2444 (ite $x2468 274 273)))
 (let (($x424 (>= ?x178 ?x2444)))
 (let ((?x499 (ite $x424 (+ (- ?x178 ?x2444) 1) (ite $x485 (+ (- ?x178 ?x3103) 1) ?x538))))
 (let ((?x181 (ite $x2468 305 304)))
 (let (($x753 (>= ?x178 ?x181)))
 (let ((?x830 (ite $x2468 335 334)))
 (let (($x402 (>= ?x178 ?x830)))
 (let ((?x2064 (ite $x402 (+ (- ?x178 ?x830) 1) (ite $x753 (+ (- ?x178 ?x181) 1) ?x499))))
 (let ((?x312 (+ (* 0 12) 1)))
 (let ((?x790 (ite $x143 5 (ite $x488 4 (ite $x2894 3 (ite $x138 2 1))))))
 (let ((?x714 (ite $x485 9 (ite $x439 8 (ite $x351 7 (ite $x363 6 ?x790))))))
 (let ((?x728 (ite $x402 12 (ite $x753 11 (ite $x424 10 ?x714)))))
 (let ((?x190 (+ ?x728 ?x312)))
 (let ((?x377 (- ?x190 1)))
 (let ((?x356 (+ (mod ?x377 12) 1)))
 (let ((?x2396 (ite (or (= ?x356 4) (= ?x356 6) (= ?x356 9) (= ?x356 11)) 30 31)))
 (let (($x460 (and (= (mod (+ ?x498 (+ 0 (div ?x377 12))) 4) 0) (and (distinct (mod (+ ?x498 (+ 0 (div ?x377 12))) 100) 0) true))))
 (let (($x731 (or $x460 (= (mod (+ ?x498 (+ 0 (div ?x377 12))) 400) 0))))
 (let ((?x1522 (ite (= ?x356 2) (ite $x731 29 28) ?x2396)))
 (let (($x1350 (> 1 ?x2064)))
 (let ((?x738 (ite $x1350 1 (ite (> ?x2064 ?x1522) ?x1522 ?x2064))))
 (let ((?x580 (ite (> 1 ?x738) 1 (ite (> ?x738 ?x1522) ?x1522 ?x738))))
 (let ((?x3228 (ite (= 2 ?x356) (ite $x731 31 31) (ite (= 1 ?x356) (ite $x731 0 0) 0))))
 (let ((?x110 (ite (= 4 ?x356) (ite $x731 91 90) (ite (= 3 ?x356) (ite $x731 60 59) ?x3228))))
 (let ((?x272 (ite (= 6 ?x356) (ite $x731 152 151) (ite (= 5 ?x356) (ite $x731 121 120) ?x110))))
 (let ((?x857 (ite (= 8 ?x356) (ite $x731 213 212) (ite (= 7 ?x356) (ite $x731 182 181) ?x272))))
 (let ((?x3101 (ite (= 10 ?x356) (ite $x731 274 273) (ite (= 9 ?x356) (ite $x731 244 243) ?x857))))
 (let ((?x264 (ite (= 12 ?x356) (ite $x731 335 334) (ite (= 11 ?x356) (ite $x731 305 304) ?x3101))))
 (let ((?x522 (+ (* 365 (- (+ ?x498 (+ 0 (div ?x377 12))) 1)) (div (- (+ ?x498 (+ 0 (div ?x377 12))) 1) 4))))
 (let ((?x227 (+ (- ?x522 (div (- (+ ?x498 (+ 0 (div ?x377 12))) 1) 100)) (div (- (+ ?x498 (+ 0 (div ?x377 12))) 1) 400))))
 (let ((?x689 (+ (+ (- (+ (+ ?x227 ?x264) (- ?x580 1)) ?x97) 0) ?x97)))
 (let ((?x2662 (mod ?x689 146097)))
 (let ((?x464 (div ?x2662 36524)))
 (let ((?x294 (ite (<= 4 ?x464) 3 ?x464)))
 (let ((?x473 (- ?x2662 (* ?x294 36524))))
 (let ((?x2911 (mod ?x473 1461)))
 (let ((?x2743 (div ?x2911 365)))
 (let ((?x2141 (ite (<= 4 ?x2743) 3 ?x2743)))
 (let ((?x103 (+ (+ (* (div ?x689 146097) 400) (* ?x294 100)) (* (div ?x473 1461) 4))))
 (let ((?x3000 (+ (+ ?x103 ?x2141) 1)))
 (let ((?x2251 (+ 0 (div ?x377 12))))
 (let ((?x3498 (+ ?x498 ?x2251)))
 (let (($x516 (= 0 0)))
 (let ((?x1918 (ite $x516 ?x3498 ?x3000)))
 (= x_plus_year ?x1918)))))))))))))))))))))))))))))))))))))))))))))))))))))))))))))))))))))))))))))))))))))))))))))
(assert
 (let (($x29 (or (and (= (mod 2000 4) 0) (and (distinct (mod 2000 100) 0) true)) (= (mod 2000 400) 0))))
 (let ((?x36 (ite (= 3 2) (ite $x29 31 31) (ite (= 3 1) (ite $x29 0 0) 0))))
 (let ((?x40 (ite $x29 60 59)))
 (let ((?x41 (ite (= 3 3) ?x40 ?x36)))
 (let ((?x46 (ite (= 3 4) (ite $x29 91 90) ?x41)))
 (let ((?x52 (ite (= 3 5) (ite $x29 121 120) ?x46)))
 (let ((?x58 (ite (= 3 6) (ite $x29 152 151) ?x52)))
 (let ((?x64 (ite (= 3 7) (ite $x29 182 181) ?x58)))
 (let ((?x70 (ite (= 3 8) (ite $x29 213 212) ?x64)))
 (let ((?x76 (ite (= 3 9) (ite $x29 244 243) ?x70)))
 (let ((?x82 (ite (= 3 10) (ite $x29 274 273) ?x76)))
 (let ((?x88 (ite (= 3 11) (ite $x29 305 304) ?x82)))
 (let ((?x16 (- (+ (* 365 (- 2000 1)) (div (- 2000 1) 4)) (div (- 2000 1) 100))))
 (let ((?x95 (+ (+ ?x16 (div (- 2000 1) 400)) (ite (= 3 12) (ite $x29 335 334) ?x88))))
 (let ((?x97 (+ ?x95 (- 1 1))))
 (let ((?x357 (+ x_epoch ?x97)))
 (let ((?x1747 (mod ?x357 146097)))
 (let ((?x555 (div ?x1747 36524)))
 (let ((?x3001 (ite (<= 4 ?x555) 3 ?x555)))
 (let ((?x2745 (- ?x1747 (* ?x3001 36524))))
 (let ((?x328 (mod ?x2745 1461)))
 (let ((?x606 (div ?x328 365)))
 (let ((?x2600 (ite (<= 4 ?x606) 3 ?x606)))
 (let ((?x616 (+ (+ (* (div ?x357 146097) 400) (* ?x3001 100)) (* (div ?x2745 1461) 4))))
 (let ((?x498 (+ (+ ?x616 ?x2600) 1)))
 (let (($x2468 (or (and (= (mod ?x498 4) 0) (and (distinct (mod ?x498 100) 0) true)) (= (mod ?x498 400) 0))))
 (let ((?x178 (- ?x328 (* ?x2600 365))))
 (let ((?x2937 (ite $x2468 31 31)))
 (let (($x138 (>= ?x178 ?x2937)))
 (let ((?x506 (ite $x138 (+ (- ?x178 ?x2937) 1) (+ (- ?x178 (ite $x2468 0 0)) 1))))
 (let ((?x649 (ite $x2468 60 59)))
 (let (($x2894 (>= ?x178 ?x649)))
 (let ((?x799 (ite $x2468 91 90)))
 (let (($x488 (>= ?x178 ?x799)))
 (let ((?x466 (ite $x488 (+ (- ?x178 ?x799) 1) (ite $x2894 (+ (- ?x178 ?x649) 1) ?x506))))
 (let ((?x563 (ite $x2468 121 120)))
 (let (($x143 (>= ?x178 ?x563)))
 (let ((?x2146 (ite $x2468 152 151)))
 (let (($x363 (>= ?x178 ?x2146)))
 (let ((?x292 (ite $x363 (+ (- ?x178 ?x2146) 1) (ite $x143 (+ (- ?x178 ?x563) 1) ?x466))))
 (let ((?x360 (ite $x2468 182 181)))
 (let (($x351 (>= ?x178 ?x360)))
 (let ((?x240 (ite $x2468 213 212)))
 (let (($x439 (>= ?x178 ?x240)))
 (let ((?x538 (ite $x439 (+ (- ?x178 ?x240) 1) (ite $x351 (+ (- ?x178 ?x360) 1) ?x292))))
 (let ((?x3103 (ite $x2468 244 243)))
 (let (($x485 (>= ?x178 ?x3103)))
 (let ((?x2444 (ite $x2468 274 273)))
 (let (($x424 (>= ?x178 ?x2444)))
 (let ((?x499 (ite $x424 (+ (- ?x178 ?x2444) 1) (ite $x485 (+ (- ?x178 ?x3103) 1) ?x538))))
 (let ((?x181 (ite $x2468 305 304)))
 (let (($x753 (>= ?x178 ?x181)))
 (let ((?x830 (ite $x2468 335 334)))
 (let (($x402 (>= ?x178 ?x830)))
 (let ((?x2064 (ite $x402 (+ (- ?x178 ?x830) 1) (ite $x753 (+ (- ?x178 ?x181) 1) ?x499))))
 (let ((?x312 (+ (* 0 12) 1)))
 (let ((?x790 (ite $x143 5 (ite $x488 4 (ite $x2894 3 (ite $x138 2 1))))))
 (let ((?x714 (ite $x485 9 (ite $x439 8 (ite $x351 7 (ite $x363 6 ?x790))))))
 (let ((?x728 (ite $x402 12 (ite $x753 11 (ite $x424 10 ?x714)))))
 (let ((?x190 (+ ?x728 ?x312)))
 (let ((?x377 (- ?x190 1)))
 (let ((?x356 (+ (mod ?x377 12) 1)))
 (let ((?x2396 (ite (or (= ?x356 4) (= ?x356 6) (= ?x356 9) (= ?x356 11)) 30 31)))
 (let (($x460 (and (= (mod (+ ?x498 (+ 0 (div ?x377 12))) 4) 0) (and (distinct (mod (+ ?x498 (+ 0 (div ?x377 12))) 100) 0) true))))
 (let (($x731 (or $x460 (= (mod (+ ?x498 (+ 0 (div ?x377 12))) 400) 0))))
 (let ((?x1522 (ite (= ?x356 2) (ite $x731 29 28) ?x2396)))
 (let (($x1350 (> 1 ?x2064)))
 (let ((?x738 (ite $x1350 1 (ite (> ?x2064 ?x1522) ?x1522 ?x2064))))
 (let ((?x580 (ite (> 1 ?x738) 1 (ite (> ?x738 ?x1522) ?x1522 ?x738))))
 (let ((?x3228 (ite (= 2 ?x356) (ite $x731 31 31) (ite (= 1 ?x356) (ite $x731 0 0) 0))))
 (let ((?x110 (ite (= 4 ?x356) (ite $x731 91 90) (ite (= 3 ?x356) (ite $x731 60 59) ?x3228))))
 (let ((?x272 (ite (= 6 ?x356) (ite $x731 152 151) (ite (= 5 ?x356) (ite $x731 121 120) ?x110))))
 (let ((?x857 (ite (= 8 ?x356) (ite $x731 213 212) (ite (= 7 ?x356) (ite $x731 182 181) ?x272))))
 (let ((?x3101 (ite (= 10 ?x356) (ite $x731 274 273) (ite (= 9 ?x356) (ite $x731 244 243) ?x857))))
 (let ((?x264 (ite (= 12 ?x356) (ite $x731 335 334) (ite (= 11 ?x356) (ite $x731 305 304) ?x3101))))
 (let ((?x522 (+ (* 365 (- (+ ?x498 (+ 0 (div ?x377 12))) 1)) (div (- (+ ?x498 (+ 0 (div ?x377 12))) 1) 4))))
 (let ((?x227 (+ (- ?x522 (div (- (+ ?x498 (+ 0 (div ?x377 12))) 1) 100)) (div (- (+ ?x498 (+ 0 (div ?x377 12))) 1) 400))))
 (let ((?x689 (+ (+ (- (+ (+ ?x227 ?x264) (- ?x580 1)) ?x97) 0) ?x97)))
 (let ((?x2662 (mod ?x689 146097)))
 (let ((?x464 (div ?x2662 36524)))
 (let ((?x294 (ite (<= 4 ?x464) 3 ?x464)))
 (let ((?x473 (- ?x2662 (* ?x294 36524))))
 (let ((?x2911 (mod ?x473 1461)))
 (let ((?x2743 (div ?x2911 365)))
 (let ((?x2141 (ite (<= 4 ?x2743) 3 ?x2743)))
 (let ((?x103 (+ (+ (* (div ?x689 146097) 400) (* ?x294 100)) (* (div ?x473 1461) 4))))
 (let ((?x3000 (+ (+ ?x103 ?x2141) 1)))
 (let (($x3200 (or (and (= (mod ?x3000 4) 0) (and (distinct (mod ?x3000 100) 0) true)) (= (mod ?x3000 400) 0))))
 (let ((?x2077 (ite $x3200 31 31)))
 (let ((?x620 (- ?x2911 (* ?x2141 365))))
 (let (($x2439 (>= ?x620 ?x2077)))
 (let ((?x1349 (ite $x3200 60 59)))
 (let (($x3283 (>= ?x620 ?x1349)))
 (let ((?x517 (ite $x3200 91 90)))
 (let (($x2967 (>= ?x620 ?x517)))
 (let ((?x417 (ite $x3200 121 120)))
 (let (($x2485 (>= ?x620 ?x417)))
 (let ((?x861 (ite $x2485 5 (ite $x2967 4 (ite $x3283 3 (ite $x2439 2 1))))))
 (let ((?x290 (ite $x3200 152 151)))
 (let (($x558 (>= ?x620 ?x290)))
 (let ((?x229 (ite $x3200 182 181)))
 (let (($x168 (>= ?x620 ?x229)))
 (let ((?x663 (ite $x3200 213 212)))
 (let (($x483 (>= ?x620 ?x663)))
 (let ((?x2360 (ite $x3200 244 243)))
 (let (($x303 (>= ?x620 ?x2360)))
 (let ((?x803 (ite $x303 9 (ite $x483 8 (ite $x168 7 (ite $x558 6 ?x861))))))
 (let ((?x762 (ite $x3200 274 273)))
 (let (($x3388 (>= ?x620 ?x762)))
 (let ((?x3114 (ite $x3200 305 304)))
 (let (($x2245 (>= ?x620 ?x3114)))
 (let ((?x596 (ite $x3200 335 334)))
 (let (($x318 (>= ?x620 ?x596)))
 (let (($x516 (= 0 0)))
 (let ((?x793 (ite $x516 ?x356 (ite $x318 12 (ite $x2245 11 (ite $x3388 10 ?x803))))))
 (= x_plus_month ?x793)))))))))))))))))))))))))))))))))))))))))))))))))))))))))))))))))))))))))))))))))))))))))))))))))))))))))))))))))))))
(assert
 (let (($x29 (or (and (= (mod 2000 4) 0) (and (distinct (mod 2000 100) 0) true)) (= (mod 2000 400) 0))))
 (let ((?x36 (ite (= 3 2) (ite $x29 31 31) (ite (= 3 1) (ite $x29 0 0) 0))))
 (let ((?x40 (ite $x29 60 59)))
 (let ((?x41 (ite (= 3 3) ?x40 ?x36)))
 (let ((?x46 (ite (= 3 4) (ite $x29 91 90) ?x41)))
 (let ((?x52 (ite (= 3 5) (ite $x29 121 120) ?x46)))
 (let ((?x58 (ite (= 3 6) (ite $x29 152 151) ?x52)))
 (let ((?x64 (ite (= 3 7) (ite $x29 182 181) ?x58)))
 (let ((?x70 (ite (= 3 8) (ite $x29 213 212) ?x64)))
 (let ((?x76 (ite (= 3 9) (ite $x29 244 243) ?x70)))
 (let ((?x82 (ite (= 3 10) (ite $x29 274 273) ?x76)))
 (let ((?x88 (ite (= 3 11) (ite $x29 305 304) ?x82)))
 (let ((?x16 (- (+ (* 365 (- 2000 1)) (div (- 2000 1) 4)) (div (- 2000 1) 100))))
 (let ((?x95 (+ (+ ?x16 (div (- 2000 1) 400)) (ite (= 3 12) (ite $x29 335 334) ?x88))))
 (let ((?x97 (+ ?x95 (- 1 1))))
 (let ((?x357 (+ x_epoch ?x97)))
 (let ((?x1747 (mod ?x357 146097)))
 (let ((?x555 (div ?x1747 36524)))
 (let ((?x3001 (ite (<= 4 ?x555) 3 ?x555)))
 (let ((?x2745 (- ?x1747 (* ?x3001 36524))))
 (let ((?x328 (mod ?x2745 1461)))
 (let ((?x606 (div ?x328 365)))
 (let ((?x2600 (ite (<= 4 ?x606) 3 ?x606)))
 (let ((?x616 (+ (+ (* (div ?x357 146097) 400) (* ?x3001 100)) (* (div ?x2745 1461) 4))))
 (let ((?x498 (+ (+ ?x616 ?x2600) 1)))
 (let (($x2468 (or (and (= (mod ?x498 4) 0) (and (distinct (mod ?x498 100) 0) true)) (= (mod ?x498 400) 0))))
 (let ((?x178 (- ?x328 (* ?x2600 365))))
 (let ((?x2937 (ite $x2468 31 31)))
 (let (($x138 (>= ?x178 ?x2937)))
 (let ((?x506 (ite $x138 (+ (- ?x178 ?x2937) 1) (+ (- ?x178 (ite $x2468 0 0)) 1))))
 (let ((?x649 (ite $x2468 60 59)))
 (let (($x2894 (>= ?x178 ?x649)))
 (let ((?x799 (ite $x2468 91 90)))
 (let (($x488 (>= ?x178 ?x799)))
 (let ((?x466 (ite $x488 (+ (- ?x178 ?x799) 1) (ite $x2894 (+ (- ?x178 ?x649) 1) ?x506))))
 (let ((?x563 (ite $x2468 121 120)))
 (let (($x143 (>= ?x178 ?x563)))
 (let ((?x2146 (ite $x2468 152 151)))
 (let (($x363 (>= ?x178 ?x2146)))
 (let ((?x292 (ite $x363 (+ (- ?x178 ?x2146) 1) (ite $x143 (+ (- ?x178 ?x563) 1) ?x466))))
 (let ((?x360 (ite $x2468 182 181)))
 (let (($x351 (>= ?x178 ?x360)))
 (let ((?x240 (ite $x2468 213 212)))
 (let (($x439 (>= ?x178 ?x240)))
 (let ((?x538 (ite $x439 (+ (- ?x178 ?x240) 1) (ite $x351 (+ (- ?x178 ?x360) 1) ?x292))))
 (let ((?x3103 (ite $x2468 244 243)))
 (let (($x485 (>= ?x178 ?x3103)))
 (let ((?x2444 (ite $x2468 274 273)))
 (let (($x424 (>= ?x178 ?x2444)))
 (let ((?x499 (ite $x424 (+ (- ?x178 ?x2444) 1) (ite $x485 (+ (- ?x178 ?x3103) 1) ?x538))))
 (let ((?x181 (ite $x2468 305 304)))
 (let (($x753 (>= ?x178 ?x181)))
 (let ((?x830 (ite $x2468 335 334)))
 (let (($x402 (>= ?x178 ?x830)))
 (let ((?x2064 (ite $x402 (+ (- ?x178 ?x830) 1) (ite $x753 (+ (- ?x178 ?x181) 1) ?x499))))
 (let ((?x312 (+ (* 0 12) 1)))
 (let ((?x790 (ite $x143 5 (ite $x488 4 (ite $x2894 3 (ite $x138 2 1))))))
 (let ((?x714 (ite $x485 9 (ite $x439 8 (ite $x351 7 (ite $x363 6 ?x790))))))
 (let ((?x728 (ite $x402 12 (ite $x753 11 (ite $x424 10 ?x714)))))
 (let ((?x190 (+ ?x728 ?x312)))
 (let ((?x377 (- ?x190 1)))
 (let ((?x356 (+ (mod ?x377 12) 1)))
 (let ((?x2396 (ite (or (= ?x356 4) (= ?x356 6) (= ?x356 9) (= ?x356 11)) 30 31)))
 (let (($x460 (and (= (mod (+ ?x498 (+ 0 (div ?x377 12))) 4) 0) (and (distinct (mod (+ ?x498 (+ 0 (div ?x377 12))) 100) 0) true))))
 (let (($x731 (or $x460 (= (mod (+ ?x498 (+ 0 (div ?x377 12))) 400) 0))))
 (let ((?x1522 (ite (= ?x356 2) (ite $x731 29 28) ?x2396)))
 (let (($x1350 (> 1 ?x2064)))
 (let ((?x738 (ite $x1350 1 (ite (> ?x2064 ?x1522) ?x1522 ?x2064))))
 (let ((?x580 (ite (> 1 ?x738) 1 (ite (> ?x738 ?x1522) ?x1522 ?x738))))
 (let ((?x3228 (ite (= 2 ?x356) (ite $x731 31 31) (ite (= 1 ?x356) (ite $x731 0 0) 0))))
 (let ((?x110 (ite (= 4 ?x356) (ite $x731 91 90) (ite (= 3 ?x356) (ite $x731 60 59) ?x3228))))
 (let ((?x272 (ite (= 6 ?x356) (ite $x731 152 151) (ite (= 5 ?x356) (ite $x731 121 120) ?x110))))
 (let ((?x857 (ite (= 8 ?x356) (ite $x731 213 212) (ite (= 7 ?x356) (ite $x731 182 181) ?x272))))
 (let ((?x3101 (ite (= 10 ?x356) (ite $x731 274 273) (ite (= 9 ?x356) (ite $x731 244 243) ?x857))))
 (let ((?x264 (ite (= 12 ?x356) (ite $x731 335 334) (ite (= 11 ?x356) (ite $x731 305 304) ?x3101))))
 (let ((?x522 (+ (* 365 (- (+ ?x498 (+ 0 (div ?x377 12))) 1)) (div (- (+ ?x498 (+ 0 (div ?x377 12))) 1) 4))))
 (let ((?x227 (+ (- ?x522 (div (- (+ ?x498 (+ 0 (div ?x377 12))) 1) 100)) (div (- (+ ?x498 (+ 0 (div ?x377 12))) 1) 400))))
 (let ((?x689 (+ (+ (- (+ (+ ?x227 ?x264) (- ?x580 1)) ?x97) 0) ?x97)))
 (let ((?x2662 (mod ?x689 146097)))
 (let ((?x464 (div ?x2662 36524)))
 (let ((?x294 (ite (<= 4 ?x464) 3 ?x464)))
 (let ((?x473 (- ?x2662 (* ?x294 36524))))
 (let ((?x2911 (mod ?x473 1461)))
 (let ((?x2743 (div ?x2911 365)))
 (let ((?x2141 (ite (<= 4 ?x2743) 3 ?x2743)))
 (let ((?x103 (+ (+ (* (div ?x689 146097) 400) (* ?x294 100)) (* (div ?x473 1461) 4))))
 (let ((?x3000 (+ (+ ?x103 ?x2141) 1)))
 (let (($x3200 (or (and (= (mod ?x3000 4) 0) (and (distinct (mod ?x3000 100) 0) true)) (= (mod ?x3000 400) 0))))
 (let ((?x620 (- ?x2911 (* ?x2141 365))))
 (let ((?x2077 (ite $x3200 31 31)))
 (let (($x2439 (>= ?x620 ?x2077)))
 (let ((?x1557 (ite $x2439 (+ (- ?x620 ?x2077) 1) (+ (- ?x620 (ite $x3200 0 0)) 1))))
 (let ((?x1349 (ite $x3200 60 59)))
 (let (($x3283 (>= ?x620 ?x1349)))
 (let ((?x517 (ite $x3200 91 90)))
 (let (($x2967 (>= ?x620 ?x517)))
 (let ((?x539 (ite $x2967 (+ (- ?x620 ?x517) 1) (ite $x3283 (+ (- ?x620 ?x1349) 1) ?x1557))))
 (let ((?x417 (ite $x3200 121 120)))
 (let (($x2485 (>= ?x620 ?x417)))
 (let ((?x290 (ite $x3200 152 151)))
 (let (($x558 (>= ?x620 ?x290)))
 (let ((?x3205 (ite $x558 (+ (- ?x620 ?x290) 1) (ite $x2485 (+ (- ?x620 ?x417) 1) ?x539))))
 (let ((?x229 (ite $x3200 182 181)))
 (let (($x168 (>= ?x620 ?x229)))
 (let ((?x663 (ite $x3200 213 212)))
 (let (($x483 (>= ?x620 ?x663)))
 (let ((?x3087 (ite $x483 (+ (- ?x620 ?x663) 1) (ite $x168 (+ (- ?x620 ?x229) 1) ?x3205))))
 (let ((?x2360 (ite $x3200 244 243)))
 (let (($x303 (>= ?x620 ?x2360)))
 (let ((?x762 (ite $x3200 274 273)))
 (let (($x3388 (>= ?x620 ?x762)))
 (let ((?x1693 (ite $x3388 (+ (- ?x620 ?x762) 1) (ite $x303 (+ (- ?x620 ?x2360) 1) ?x3087))))
 (let ((?x3114 (ite $x3200 305 304)))
 (let (($x2245 (>= ?x620 ?x3114)))
 (let ((?x596 (ite $x3200 335 334)))
 (let (($x318 (>= ?x620 ?x596)))
 (let ((?x3297 (ite $x318 (+ (- ?x620 ?x596) 1) (ite $x2245 (+ (- ?x620 ?x3114) 1) ?x1693))))
 (let (($x516 (= 0 0)))
 (let ((?x3427 (ite $x516 ?x580 ?x3297)))
 (= x_plus_day ?x3427)))))))))))))))))))))))))))))))))))))))))))))))))))))))))))))))))))))))))))))))))))))))))))))))))))))))))))))))))))))))))
(assert
 (<= x_plus_epoch 8400))
(check-sat)
